4 100 2081
5 8 7 6 5 4 9 11 5 6
3 2 2 4
4 4 8
1 1
3 4
6 7 6 8
0 35.0 35.0 0.0 0.0 0 230
2 41.0 49.0 10.0 10.0 0 204 56 0 0 0 0 0 0 0 0 0 1
3 35.0 17.0 10.0 7.0 0 202 70 0 1 1 0 0 1 0 1 0 0
4 55.0 45.0 10.0 13.0 0 197 61 0 1 0 0 1 0 0 0 0 0
5 55.0 20.0 10.0 19.0 149 159 89 0 0 0 0 0 1 0 1 0 0
6 15.0 30.0 10.0 26.0 0 199 98 0 0 0 1 0 0 0 0 0 1
7 25.0 30.0 10.0 3.0 99 109 38 1 1 1 0 0 0 1 0 0 0
8 20.0 50.0 10.0 5.0 0 198 11 0 0 0 0 0 1 0 0 0 0
9 10.0 43.0 10.0 9.0 95 105 48 0 1 0 0 0 0 1 0 1 1
10 55.0 60.0 10.0 16.0 97 107 74 1 0 0 0 0 0 1 0 0 0
11 30.0 60.0 10.0 16.0 124 134 38 1 0 0 0 0 0 0 0 0 0
12 20.0 65.0 10.0 12.0 67 77 81 0 0 0 0 0 0 1 0 0 0
13 50.0 35.0 10.0 19.0 0 205 13 0 1 0 0 0 0 0 0 0 0
14 30.0 25.0 10.0 23.0 159 169 70 0 0 0 0 0 0 0 0 1 0
15 15.0 10.0 10.0 20.0 32 42 27 0 0 0 1 0 0 0 0 0 0
16 30.0 5.0 10.0 8.0 61 71 12 0 0 0 1 0 1 0 1 1 0
17 10.0 20.0 10.0 19.0 75 85 68 0 1 1 0 0 0 1 0 0 1
18 5.0 30.0 10.0 2.0 157 167 81 0 0 0 1 0 0 0 0 0 0
19 20.0 40.0 10.0 12.0 87 97 89 1 1 0 1 0 1 0 0 0 0
20 15.0 60.0 10.0 17.0 76 86 37 0 0 0 0 1 0 0 1 0 0
21 45.0 65.0 10.0 9.0 126 136 18 1 0 0 0 0 0 1 0 0 0
22 45.0 20.0 10.0 11.0 0 201 22 0 0 0 0 0 1 0 0 0 0
23 45.0 10.0 10.0 18.0 97 107 22 0 0 0 0 0 0 0 0 1 0
24 55.0 5.0 10.0 29.0 68 78 5 0 0 0 0 1 0 0 1 1 0
25 65.0 35.0 10.0 3.0 153 163 29 1 0 0 0 0 0 0 0 0 1
26 65.0 20.0 10.0 6.0 172 182 80 0 1 0 0 0 0 0 0 0 0
27 45.0 30.0 10.0 17.0 0 208 50 1 0 0 0 0 0 1 1 0 0
28 35.0 40.0 10.0 16.0 37 47 44 0 0 0 0 0 1 1 0 0 0
29 41.0 37.0 10.0 16.0 39 49 90 0 1 0 1 0 0 0 1 0 0
30 64.0 42.0 10.0 9.0 63 73 26 1 0 0 0 0 0 1 0 0 1
31 40.0 60.0 10.0 21.0 71 81 82 1 0 0 0 0 0 0 0 0 1
32 31.0 52.0 10.0 27.0 0 202 91 0 0 1 0 0 0 0 1 0 0
33 35.0 69.0 10.0 23.0 141 151 0 0 0 0 0 0 1 0 0 0 0
34 53.0 52.0 10.0 11.0 37 47 84 0 0 0 0 0 1 0 0 0 0
35 65.0 55.0 10.0 14.0 0 183 67 0 0 0 0 0 0 1 1 0 0
36 63.0 65.0 10.0 8.0 143 153 32 0 0 0 0 0 0 0 1 0 1
37 2.0 60.0 10.0 5.0 41 51 93 0 0 0 0 1 0 0 0 0 0
38 20.0 20.0 10.0 8.0 0 198 31 1 1 0 0 0 0 0 0 0 1
39 5.0 5.0 10.0 16.0 83 93 55 0 0 0 0 0 0 0 0 1 0
40 60.0 12.0 10.0 31.0 44 54 40 0 1 0 0 0 1 1 0 0 0
41 40.0 25.0 10.0 9.0 85 95 35 0 0 0 0 0 0 1 0 0 0
42 42.0 7.0 10.0 5.0 97 107 8 0 0 0 1 0 0 0 1 0 0
43 24.0 12.0 10.0 5.0 31 41 36 1 0 0 0 0 1 0 0 0 1
44 23.0 3.0 10.0 7.0 132 142 68 0 0 0 0 1 0 0 0 1 0
45 11.0 14.0 10.0 18.0 69 79 9 0 0 1 1 0 0 0 0 1 0
46 6.0 38.0 10.0 16.0 32 42 14 0 1 1 0 0 0 0 0 0 1
47 2.0 48.0 10.0 1.0 117 127 37 1 0 1 0 0 0 0 0 0 0
48 8.0 56.0 10.0 27.0 51 61 96 0 0 0 0 0 1 0 0 0 0
49 13.0 52.0 10.0 36.0 0 192 3 0 0 0 0 0 1 0 0 0 0
50 6.0 68.0 10.0 30.0 108 118 95 0 0 0 0 0 0 0 1 0 0
51 47.0 47.0 10.0 13.0 0 203 65 0 0 0 0 0 0 0 1 0 1
52 49.0 58.0 10.0 10.0 88 98 91 1 0 0 0 0 0 0 0 0 0
53 27.0 43.0 10.0 9.0 0 208 85 0 0 0 0 0 0 1 0 0 0
54 37.0 31.0 10.0 14.0 95 105 48 0 0 0 1 0 0 0 0 0 0
55 57.0 29.0 10.0 18.0 140 150 53 0 0 0 0 1 0 0 1 0 0
56 63.0 23.0 10.0 2.0 136 146 61 0 0 0 0 0 0 0 1 0 0
57 53.0 12.0 10.0 6.0 130 140 68 0 1 0 0 1 0 0 0 0 0
58 32.0 12.0 10.0 7.0 101 111 32 0 0 0 1 1 0 0 0 0 0
59 36.0 26.0 10.0 18.0 200 210 50 0 0 0 0 0 0 0 0 0 1
60 21.0 24.0 10.0 28.0 0 202 16 1 0 0 0 0 0 0 0 0 0
61 17.0 34.0 10.0 3.0 162 172 15 0 0 0 0 0 0 0 0 0 1
62 12.0 24.0 10.0 13.0 76 86 92 0 0 0 0 0 1 0 0 0 0
63 24.0 58.0 10.0 19.0 58 68 33 1 0 0 0 1 0 0 0 1 0
64 27.0 69.0 10.0 10.0 34 44 82 0 0 0 0 1 0 0 0 0 0
65 15.0 77.0 10.0 9.0 73 83 61 0 0 0 0 0 1 1 0 0 0
66 62.0 77.0 10.0 20.0 51 61 12 0 0 0 0 0 0 0 0 1 0
67 49.0 73.0 10.0 25.0 127 137 13 0 0 1 0 0 1 0 0 0 0
68 67.0 5.0 10.0 25.0 83 93 96 0 0 0 1 0 0 1 1 1 0
69 56.0 39.0 10.0 36.0 142 152 75 0 1 0 0 0 0 0 0 0 0
70 37.0 47.0 10.0 6.0 50 60 99 1 1 1 0 0 0 0 1 0 1
71 37.0 56.0 10.0 5.0 182 192 99 0 0 0 0 0 0 1 0 0 0
72 57.0 68.0 10.0 15.0 77 87 39 0 0 1 0 0 0 1 0 0 0
73 47.0 16.0 10.0 25.0 0 197 75 0 1 1 0 0 0 0 0 0 0
74 44.0 17.0 10.0 9.0 78 88 25 1 1 0 0 0 0 0 1 0 1
75 46.0 13.0 10.0 8.0 149 159 31 0 0 0 0 0 0 1 0 1 0
76 49.0 11.0 10.0 18.0 0 192 5 0 0 1 0 0 0 0 0 0 0
77 49.0 42.0 10.0 13.0 73 83 40 0 0 0 0 1 0 0 0 0 0
78 53.0 43.0 10.0 14.0 179 189 39 0 0 1 0 0 1 0 1 0 0
79 61.0 52.0 10.0 3.0 96 106 94 0 0 0 0 0 1 0 0 0 0
80 57.0 48.0 10.0 23.0 92 102 63 1 0 1 0 0 0 0 1 0 0
81 56.0 37.0 10.0 6.0 182 192 0 0 0 1 1 1 0 0 0 1 0
82 55.0 54.0 10.0 26.0 94 104 85 0 0 0 0 0 1 0 0 0 0
83 15.0 47.0 10.0 16.0 0 196 52 0 0 0 1 0 0 0 0 0 1
84 14.0 37.0 10.0 11.0 0 198 18 0 0 0 0 0 0 0 1 0 0
85 11.0 31.0 10.0 7.0 101 111 92 0 0 0 0 0 1 0 0 0 0
86 16.0 22.0 10.0 41.0 0 196 43 0 0 1 0 0 0 0 0 0 0
87 4.0 18.0 10.0 35.0 94 104 74 1 0 0 0 0 0 0 0 0 0
88 28.0 18.0 10.0 26.0 93 103 57 0 1 0 1 0 0 0 1 1 0
89 26.0 52.0 10.0 9.0 74 84 78 0 0 0 0 1 0 0 0 0 0
90 26.0 35.0 10.0 15.0 176 186 61 0 0 0 0 0 1 0 0 0 0
91 31.0 67.0 10.0 3.0 95 105 90 0 1 1 0 1 0 1 0 0 0
92 15.0 19.0 10.0 1.0 0 194 68 0 0 0 1 1 0 0 0 0 0
93 22.0 22.0 10.0 2.0 18 28 18 0 1 1 0 0 0 0 0 0 0
94 18.0 24.0 10.0 22.0 188 198 52 1 0 0 1 1 0 0 0 0 0
95 26.0 27.0 10.0 27.0 0 207 34 0 0 0 0 0 1 0 0 0 0
96 25.0 24.0 10.0 20.0 0 205 27 0 0 0 0 0 0 1 0 1 0
97 22.0 27.0 10.0 11.0 0 204 51 0 0 0 0 1 0 1 0 0 0
98 25.0 21.0 10.0 12.0 133 143 10 0 0 0 1 0 0 1 0 0 0
99 19.0 21.0 10.0 10.0 0 198 70 0 1 1 0 0 1 0 0 1 0
100 20.0 26.0 10.0 9.0 83 93 78 0 0 0 0 0 0 0 0 1 0
101 18.0 18.0 10.0 17.0 185 195 52 0 0 0 0 1 0 0 1 0 0